(set-logic QF_S)
(set-option :strings-exp true)
(set-option :produce-models true)
(declare-fun sigmaStar_0 () String)
(declare-fun literal_5 () String)
(assert (= literal_5 "\x3c\x74\x64\x20\x6e\x6f\x77\x72\x61\x70\x3d\x5c\x22\x6e\x6f\x77\x72\x61\x70\x5c\x22\x20\x61\x6c\x69\x67\x6e\x3d\x5c\x22\x63\x65\x6e\x74\x65\x72\x5c\x22\x3e\x3c\x66\x6f\x6e\x74\x20\x73\x69\x7a\x65\x3d\x5c\x22\x33\x5c\x22\x3e\x73\x74\x61\x74\x75\x73\x3c\x2f\x66\x6f\x6e\x74\x3e\x3c\x2f\x74\x64\x3e"))
(assert (str.in.re literal_5 (re.++ (re.* re.allchar) (re.++ (str.to.re "\x5c\x3c\x53\x43\x52\x49\x50\x54") (re.* re.allchar)))))
(check-sat)
(get-model)
